n=12;
m=10;
Ba=4.544933;
Bp=1.413333;
Ha=[[0.050000,0.050000,0.050000,0.050000,13.600000,13.600000,13.600000,13.600000,13.600000,0.050000,0.000000,0.000000],[0.050000,0.050000,0.050000,0.050000,13.600000,13.600000,13.600000,13.600000,13.600000,0.050000,0.000000,0.000000],[0.050000,0.050000,0.050000,0.300000,13.600000,13.600000,13.600000,13.600000,13.600000,0.050000,0.000000,0.000000],[0.050000,0.050000,0.050000,0.300000,0.300000,0.300000,0.300000,1.300000,1.300000,1.300000,0.000000,0.000000],[0.050000,0.050000,0.050000,0.300000,0.300000,0.300000,0.300000,1.300000,1.300000,1.300000,0.000000,0.000000],[0.050000,0.050000,0.050000,0.050000,0.050000,0.050000,0.050000,1.300000,1.300000,1.300000,0.000000,0.000000],[0.050000,0.050000,0.050000,0.050000,0.050000,0.050000,0.050000,0.050000,0.050000,0.050000,0.000000,0.000000],[0.050000,0.050000,0.050000,0.050000,0.050000,0.050000,0.050000,0.050000,0.050000,0.050000,0.000000,0.000000],[0.000000,0.000000,0.000000,0.000000,0.050000,0.050000,0.050000,0.050000,0.050000,0.050000,0.000000,0.000000],[0.000000,0.000000,0.000000,0.000000,0.050000,0.050000,0.050000,0.050000,0.050000,0.050000,0.000000,0.000000]];
Ca=[[0.750000,0.750000,0.750000,0.750000,0.125000,0.125000,0.125000,0.125000,0.125000,0.750000,0.000000,0.000000],[0.750000,0.750000,0.750000,0.750000,0.125000,0.125000,0.125000,0.125000,0.125000,0.750000,0.000000,0.000000],[0.750000,0.750000,0.750000,0.670000,0.125000,0.125000,0.125000,0.125000,0.125000,0.750000,0.000000,0.000000],[0.750000,0.750000,0.750000,0.670000,0.670000,0.670000,0.670000,0.500000,0.500000,0.500000,0.000000,0.000000],[0.750000,0.750000,0.750000,0.670000,0.670000,0.670000,0.670000,0.500000,0.500000,0.500000,0.000000,0.000000],[0.750000,0.750000,0.750000,0.750000,0.750000,0.750000,0.750000,0.500000,0.500000,0.500000,0.000000,0.000000],[0.750000,0.750000,0.750000,0.750000,0.750000,0.750000,0.750000,0.750000,0.750000,0.750000,0.000000,0.000000],[0.750000,0.750000,0.750000,0.750000,0.750000,0.750000,0.750000,0.750000,0.750000,0.750000,0.000000,0.000000],[240.000000,240.000000,240.000000,240.000000,0.750000,0.750000,0.750000,0.750000,0.750000,0.750000,0.000000,0.000000],[240.000000,240.000000,240.000000,240.000000,0.750000,0.750000,0.750000,0.750000,0.750000,0.750000,0.000000,0.000000]];
Hp=[[0.050000,0.050000,0.050000,0.050000,13.600000,13.600000,13.600000,13.600000,13.600000,0.050000,0.000000,0.000000],[0.050000,0.050000,0.050000,0.050000,13.600000,13.600000,13.600000,13.600000,13.600000,0.050000,0.000000,0.000000],[0.050000,0.050000,0.050000,0.300000,13.600000,13.600000,13.600000,13.600000,13.600000,0.050000,0.000000,0.000000],[0.050000,0.050000,0.050000,0.300000,0.300000,0.300000,0.300000,1.300000,1.300000,1.300000,0.000000,0.000000],[0.050000,0.050000,0.050000,0.300000,0.300000,0.300000,0.300000,1.300000,1.300000,1.300000,0.000000,0.000000],[0.050000,0.050000,0.050000,0.050000,0.050000,0.050000,0.050000,1.300000,1.300000,1.300000,0.000000,0.000000],[0.050000,0.050000,0.050000,0.050000,0.050000,0.050000,0.050000,0.050000,0.050000,0.050000,0.000000,0.000000],[0.050000,0.050000,0.050000,0.050000,0.050000,0.050000,0.050000,0.050000,0.050000,0.050000,0.000000,0.000000],[0.000000,0.000000,0.000000,0.000000,0.050000,0.050000,0.050000,0.050000,0.050000,0.050000,0.000000,0.000000],[0.000000,0.000000,0.000000,0.000000,0.050000,0.050000,0.050000,0.050000,0.050000,0.050000,0.000000,0.000000]];
Cp=[[0.750000,0.750000,0.750000,0.750000,0.125000,0.125000,0.125000,0.125000,0.125000,0.750000,0.000000,0.000000],[0.750000,0.750000,0.750000,0.750000,0.125000,0.125000,0.125000,0.125000,0.125000,0.750000,0.000000,0.000000],[0.750000,0.750000,0.750000,0.670000,0.125000,0.125000,0.125000,0.125000,0.125000,0.750000,0.000000,0.000000],[0.750000,0.750000,0.750000,0.670000,0.670000,0.670000,0.670000,0.500000,0.500000,0.500000,0.000000,0.000000],[0.750000,0.750000,0.750000,0.670000,0.670000,0.670000,0.670000,0.500000,0.500000,0.500000,0.000000,0.000000],[0.750000,0.750000,0.750000,0.750000,0.750000,0.750000,0.750000,0.500000,0.500000,0.500000,0.000000,0.000000],[0.750000,0.750000,0.750000,0.750000,0.750000,0.750000,0.750000,0.750000,0.750000,0.750000,0.000000,0.000000],[0.750000,0.750000,0.750000,0.750000,0.750000,0.750000,0.750000,0.750000,0.750000,0.750000,0.000000,0.000000],[240.000000,240.000000,240.000000,240.000000,0.750000,0.750000,0.750000,0.750000,0.750000,0.750000,0.000000,0.000000],[240.000000,240.000000,240.000000,240.000000,0.750000,0.750000,0.750000,0.750000,0.750000,0.750000,0.000000,0.000000]];
